
List of user-set options:

                                    Name   Value                used
                           compl_inf_tol = 1                     yes
                         constr_viol_tol = 1                     yes
                            dual_inf_tol = 1000                  yes
                           linear_solver = ma97                  yes
                              ma86_small = 1e-30                  no
                                  ma86_u = 0.0001                 no
                              ma97_order = best                  yes
                              ma97_small = 1e-30                 yes
                            ma97_switch1 = at_start              yes
                            ma97_switch2 = od_hd_reuse           yes
                                  ma97_u = 1e-06                 yes
                               ma97_umax = 0.5                   yes
                                max_iter = 1000                  yes
                    max_refinement_steps = 20                    yes
                    min_refinement_steps = 5                     yes
                                 mu_init = 1e-06                 yes
           mu_superlinear_decrease_power = 1.25                  yes
                   nlp_scaling_min_value = 1e-08                 yes
                        option_file_name = Preset_Case_457_pf.opt  yes
                             output_file = ./tmp/Preset_Case_457_pf.output  yes
                      print_user_options = yes                   yes
        required_infeasibility_reduction = 1                      no
                                     tol = 1e-08                 yes
                   warm_start_bound_frac = 1e-20                 yes
                   warm_start_bound_push = 1e-20                 yes
                   warm_start_init_point = yes                   yes
              warm_start_mult_bound_push = 1e-20                 yes
                warm_start_mult_init_max = 1e+40                 yes
             warm_start_slack_bound_frac = 1e-20                 yes
             warm_start_slack_bound_push = 1e-20                 yes

******************************************************************************
This program contains Ipopt, a library for large-scale nonlinear optimization.
 Ipopt is released as open source code under the Eclipse Public License (EPL).
         For more information visit http://projects.coin-or.org/Ipopt
******************************************************************************

This is Ipopt version 3.12.10, running with linear solver ma97.

Number of nonzeros in equality constraint Jacobian...:   123442
Number of nonzeros in inequality constraint Jacobian.:      213
Number of nonzeros in Lagrangian Hessian.............:    49069

Total number of variables............................:    31591
                     variables with only lower bounds:    12912
                variables with lower and upper bounds:    15130
                     variables with only upper bounds:        0
Total number of equality constraints.................:    31483
Total number of inequality constraints...............:       25
        inequality constraints with only lower bounds:        4
   inequality constraints with lower and upper bounds:        0
        inequality constraints with only upper bounds:       21

iter    objective    inf_pr   inf_du lg(mu)  ||d||  lg(rg) alpha_du alpha_pr  ls
   0 -5.3541091e+00 4.05e-03 1.02e+00  -6.0 0.00e+00    -  0.00e+00 0.00e+00   0
   1 -5.3599607e+00 9.04e+00 3.36e+01  -6.0 3.74e+05    -  8.77e-05 1.24e-03h  1
   2 -5.3599210e+00 9.04e+00 3.36e+01  -6.0 2.62e+03    -  1.15e-04 3.30e-05h  1
   3 -5.3576055e+00 9.03e+00 3.37e+01  -6.0 2.03e+04    -  8.84e-05 8.93e-04h  3
   4 -5.3551933e+00 9.01e+00 8.89e+01  -6.0 4.33e+03    -  1.67e-01 2.06e-03h  3
   5 -5.3534933e+00 9.00e+00 9.44e+01  -6.0 9.42e+02    -  2.47e-03 1.23e-03h  5
   6 -5.3534653e+00 9.00e+00 9.66e+01  -6.0 3.99e+03    -  5.05e-03 2.42e-05h 15
   7r-5.3534653e+00 9.00e+00 9.99e+02   1.0 0.00e+00    -  0.00e+00 3.86e-07R 21
   8r-5.3624592e+00 9.00e+00 2.35e+03   1.0 7.27e+04    -  4.32e-07 3.89e-08f  1
   9 -5.3624290e+00 9.00e+00 1.22e+03  -6.0 5.40e+02    -  7.78e-04 2.39e-05h  1
iter    objective    inf_pr   inf_du lg(mu)  ||d||  lg(rg) alpha_du alpha_pr  ls
  10 -5.3603850e+00 8.99e+00 6.29e+04  -6.0 3.65e+02    -  2.50e-05 1.25e-03h  1
  11 -5.3590935e+00 8.98e+00 6.29e+04  -6.0 3.56e+02    -  1.26e-03 7.84e-04h  1
  12 -5.3562597e+00 8.97e+00 6.28e+04  -6.0 3.59e+02    -  1.68e-03 1.73e-03h  1
  13 -5.3483059e+00 8.93e+00 6.25e+04  -6.0 3.59e+02    -  7.51e-05 4.76e-03h  2
  14 -5.3457867e+00 8.92e+00 6.24e+04  -6.0 3.24e+02    -  5.18e-04 1.18e-03h  5
  15 -5.3443494e+00 8.91e+00 6.24e+04  -6.0 3.25e+02    -  2.34e-03 6.70e-04h  6
  16 -5.3439532e+00 8.91e+00 6.23e+04  -6.0 3.26e+02    -  3.96e-03 1.85e-04h  8
  17 -5.3437241e+00 8.91e+00 6.23e+04  -6.0 3.27e+02    -  5.17e-03 1.07e-04h  9
  18 -5.2740737e+00 8.62e+00 6.03e+04  -6.0 3.28e+02    -  1.20e-03 3.27e-02h  1
  19 -5.2406284e+00 8.48e+00 5.93e+04  -6.0 3.29e+02    -  4.97e-02 1.65e-02h  1
iter    objective    inf_pr   inf_du lg(mu)  ||d||  lg(rg) alpha_du alpha_pr  ls
  20 -5.0826271e+00 7.82e+00 5.47e+04  -6.0 3.24e+02    -  3.23e-02 7.83e-02h  1
  21 -5.0817768e+00 7.82e+00 5.46e+04  -6.0 3.02e+02    -  3.08e-03 4.49e-04h  1
  22 -4.4426553e+00 5.27e+00 3.59e+04  -6.0 3.05e+02    -  4.45e-03 3.43e-01h  1
  23 -4.4317999e+00 5.20e+00 3.54e+04  -6.0 2.64e+02    -  3.42e-01 1.38e-02h  1
  24 -3.8081926e+00 3.52e+00 9.82e+04  -6.0 2.71e+02    -  4.16e-01 9.01e-01h  1
  25 -3.9478002e+00 2.35e+00 6.76e+04  -6.0 1.98e+01    -  3.20e-01 3.41e-01h  1
  26 -4.2573218e+00 5.81e-01 2.37e+04  -6.0 2.29e+01    -  6.36e-01 7.40e-01h  1
  27 -4.3356099e+00 5.26e-01 7.87e+06  -6.0 4.58e+01    -  3.67e-02 9.39e-02h  1
  28 -4.4256281e+00 4.54e-01 7.04e+06  -6.0 5.15e+01    -  5.57e-02 1.07e-01f  1
  29 -4.4531840e+00 4.38e-01 6.91e+06  -6.0 5.40e+01    -  6.81e-02 3.04e-02f  1
iter    objective    inf_pr   inf_du lg(mu)  ||d||  lg(rg) alpha_du alpha_pr  ls
  30 -4.6200242e+00 3.16e-01 7.23e+06  -6.0 5.51e+01    -  4.34e-02 1.80e-01f  1
  31 -4.6866522e+00 2.93e-01 6.87e+06  -6.0 5.80e+01    -  8.40e-02 7.09e-02h  1
  32 -4.9630791e+00 3.14e-01 7.65e+06  -6.0 6.11e+01    -  4.44e-01 2.81e-01h  1
  33 -5.4873166e+00 1.17e+00 7.73e+06  -6.0 8.03e+01    -  5.21e-02 4.07e-01f  1
  34 -5.4874083e+00 1.17e+00 7.71e+06  -6.0 6.75e+01    -  3.95e-01 2.29e-03h  1
  35 -5.5542131e+00 9.58e-01 6.07e+06  -6.0 9.79e+01    -  5.94e-01 1.83e-01h  1
  36 -5.5732009e+00 1.02e+00 5.60e+06  -6.0 1.04e+02    -  1.96e-01 1.20e-01h  1
  37 -5.5856715e+00 8.01e-01 4.40e+06  -6.0 1.20e+02    -  4.35e-01 2.33e-01h  1
  38 -5.6242939e+00 7.42e-01 3.17e+06  -6.0 1.55e+02    -  3.50e-01 3.81e-01h  1
  39 -5.6518080e+00 6.35e-01 2.65e+06  -6.0 3.82e+02    -  2.12e-01 1.74e-01h  1
iter    objective    inf_pr   inf_du lg(mu)  ||d||  lg(rg) alpha_du alpha_pr  ls
  40 -5.6763926e+00 5.34e-01 2.13e+06  -6.0 2.43e+02    -  7.13e-01 2.09e-01h  1
  41 -5.7193114e+00 4.27e-01 1.52e+06  -6.0 3.53e+02    -  5.74e-01 3.05e-01h  1
  42 -5.7228927e+00 4.21e-01 1.50e+06  -6.0 1.50e+03    -  6.67e-02 1.43e-02h  1
  43 -5.7538161e+00 4.11e-01 1.01e+06  -6.0 3.59e+02    -  1.25e-01 3.36e-01h  1
  44 -5.7604251e+00 3.74e-01 8.70e+05  -6.0 3.74e+02    -  5.99e-01 1.39e-01h  1
  45 -5.7811506e+00 1.74e+00 5.16e+05  -6.0 8.32e+02    -  8.11e-01 4.13e-01h  1
  46 -5.7867428e+00 2.51e+00 4.58e+05  -6.0 2.37e+03    -  9.48e-02 1.11e-01h  1
  47 -5.7867428e+00 2.51e+00 4.58e+05  -6.0 2.20e+03    -  1.62e-06 5.59e-07h  2
  48 -5.7867428e+00 2.51e+00 4.58e+05  -6.0 9.37e+00   0.0 2.41e-06 4.92e-06h  2
  49 -5.7867427e+00 2.51e+00 4.58e+05  -6.0 1.85e+01  -0.5 5.93e-05 1.88e-05h  1
iter    objective    inf_pr   inf_du lg(mu)  ||d||  lg(rg) alpha_du alpha_pr  ls
  50 -5.7860094e+00 2.32e+00 4.24e+05  -6.0 6.34e-01  -1.0 3.36e-06 7.47e-02h  1
  51 -5.7859139e+00 2.30e+00 4.20e+05  -6.0 5.09e-01   0.4 7.21e-03 8.59e-03h  1
  52 -5.7852296e+00 2.17e+00 3.97e+05  -6.0 4.47e-01  -0.1 7.59e-03 5.67e-02h  1
  53 -5.7849934e+00 2.13e+00 3.89e+05  -6.0 3.92e-01   0.3 2.93e-02 1.91e-02h  1
  54 -5.7845507e+00 2.05e+00 3.75e+05  -6.0 3.83e-01   0.7 2.98e-02 3.50e-02h  1
  55 -5.7842292e+00 2.01e+00 3.67e+05  -6.0 3.70e-01   1.2 9.24e-03 2.18e-02h  1
  56 -5.7828751e+00 1.83e+00 3.35e+05  -6.0 3.58e-01   0.7 1.72e-02 8.91e-02h  1
  57 -5.7823916e+00 1.77e+00 3.24e+05  -6.0 3.23e-01   1.1 2.05e-01 3.28e-02h  1
  58 -5.7793866e+00 1.40e+00 2.57e+05  -6.0 3.05e-01   0.6 1.06e-01 2.06e-01h  1
  59 -5.7781472e+00 1.27e+00 2.32e+05  -6.0 2.35e-01   1.1 4.25e-01 9.69e-02h  1
iter    objective    inf_pr   inf_du lg(mu)  ||d||  lg(rg) alpha_du alpha_pr  ls
  60 -5.7769167e+00 1.16e+00 2.12e+05  -6.0 1.80e-01   0.6 1.83e-01 8.40e-02h  1
  61 -5.7760117e+00 1.07e+00 1.96e+05  -6.0 1.83e-01   1.0 6.86e-01 7.58e-02h  1
  62 -5.7756875e+00 1.05e+00 1.92e+05  -6.0 1.50e-01   0.5 2.94e-02 2.02e-02h  1
  63 -5.7716675e+00 6.91e-01 1.26e+05  -6.0 1.59e-01   1.0 9.93e-02 3.43e-01h  1
  64 -5.7692589e+00 5.07e-01 9.28e+04  -6.0 9.63e-02   0.5 4.12e-01 2.65e-01h  1
  65 -5.7631410e+00 1.02e-01 1.88e+04  -6.0 7.86e-02   0.0 9.48e-01 7.98e-01h  1
  66 -5.7591514e+00 4.12e-03 3.66e+03  -6.0 6.98e-02  -0.5 3.07e-01 9.60e-01h  1
  67 -5.7651716e+00 2.26e-03 1.47e+03  -6.0 1.73e-01  -0.9 5.80e-01 4.52e-01f  1
  68 -5.7659173e+00 2.17e-03 9.81e+02  -6.0 3.47e-01  -1.4 2.77e-01 4.11e-02f  1
  69 -5.7684865e+00 2.05e-03 7.15e+02  -6.0 9.35e-01  -1.9 2.19e-01 5.25e-02h  1
iter    objective    inf_pr   inf_du lg(mu)  ||d||  lg(rg) alpha_du alpha_pr  ls
  70 -5.7720759e+00 1.95e-03 5.45e+02  -6.0 1.62e+00  -2.4 1.86e-01 5.05e-02h  1
  71 -5.7725213e+00 1.90e-03 4.80e+02  -6.0 1.39e+00  -2.8 8.87e-02 2.40e-02h  1
  72 -5.7726743e+00 1.87e-03 3.61e+02  -6.0 7.58e-01  -2.4 3.46e-01 1.42e-02h  1
  73 -5.7756878e+00 1.43e-03 2.75e+02  -6.0 1.43e+00  -2.9 3.06e-01 2.38e-01h  1
  74 -5.7758099e+00 1.33e-03 2.56e+02  -6.0 2.84e+00  -3.4 6.74e-02 7.06e-02h  1
  75 -5.7759584e+00 1.15e-03 2.21e+02  -6.0 7.69e-02  -2.9 7.93e-01 1.35e-01f  1
  76 -5.7771857e+00 3.99e-04 3.90e+02  -6.0 3.46e-01  -3.4 3.28e-02 1.00e+00h  1
  77 -5.7775568e+00 4.25e-04 1.39e+02  -6.0 7.18e-01  -3.9 8.59e-01 6.53e-01h  1
  78 -5.7785745e+00 4.35e-03 4.47e+01  -6.0 1.81e+00  -4.4 4.83e-01 9.00e-01f  1
  79 -5.7803731e+00 1.79e-02 2.02e+01  -6.0 3.76e+00  -4.9 1.00e+00 1.00e+00f  1
iter    objective    inf_pr   inf_du lg(mu)  ||d||  lg(rg) alpha_du alpha_pr  ls
  80 -5.7824514e+00 1.92e-02 4.89e+01  -6.0 7.72e+00  -5.3 8.09e-01 1.00e+00h  1
  81 -5.7855279e+00 2.45e-02 6.03e+01  -6.0 2.44e+01  -5.8 1.00e+00 1.00e+00h  1
  82 -5.7920597e+00 1.40e-01 4.56e+01  -6.0 6.83e+01  -6.3 1.00e+00 8.41e-01h  1
  83 -5.7950919e+00 7.73e-02 5.37e+01  -6.0 6.64e+01  -6.8 1.00e+00 1.00e+00h  1
  84 -5.8005178e+00 1.47e-01 4.29e+03  -6.0 1.82e+03  -7.2 3.66e-02 3.28e-02h  1
  85 -5.8138514e+00 9.41e-01 2.11e+04  -6.0 1.84e+02  -7.7 1.00e+00 8.07e-01h  1
  86 -5.8186798e+00 5.66e-01 1.54e+05  -6.0 4.09e+02  -8.2 6.32e-01 3.08e-01h  1
  87 -5.8227448e+00 4.36e-01 1.34e+05  -6.0 1.74e+02  -7.8 4.89e-01 3.12e-01h  1
  88r-5.8227448e+00 4.36e-01 1.00e+03  -0.4 0.00e+00  -8.2 0.00e+00 3.59e-07R  2
  89r-5.8290153e+00 4.34e-01 1.00e+03  -0.4 1.27e+04    -  1.40e-05 3.58e-06f  1
iter    objective    inf_pr   inf_du lg(mu)  ||d||  lg(rg) alpha_du alpha_pr  ls
  90 -5.8275845e+00 3.58e-01 3.81e+05  -6.0 1.11e+01    -  4.13e-01 1.77e-01h  1
  91 -5.8252661e+00 2.35e-01 8.78e+05  -6.0 3.72e+00    -  1.77e-01 3.43e-01h  1
  92 -5.8213471e+00 1.95e-02 7.28e+04  -6.0 2.54e+00    -  9.05e-01 9.17e-01h  1
  93 -5.8214017e+00 1.21e-02 4.53e+04  -6.0 2.08e+00    -  9.13e-01 3.78e-01h  1
  94 -5.8234467e+00 8.28e-03 1.62e+01  -6.0 1.44e+01    -  8.88e-01 1.00e+00h  1
  95 -5.8309610e+00 1.62e-01 3.45e+01  -6.0 1.17e+02    -  5.69e-01 5.36e-01h  1
  96 -5.8354717e+00 4.34e-01 5.70e+01  -6.0 1.19e+02    -  7.62e-01 1.00e+00h  1
  97 -5.8433341e+00 7.27e-01 5.12e+01  -6.0 2.97e+03  -8.7 3.44e-02 3.40e-02h  1
  98 -5.8442900e+00 8.61e-01 5.00e+01  -6.0 9.45e+03    -  2.38e-02 2.35e-02h  1
  99 -5.8467039e+00 1.04e+00 1.01e+03  -6.0 1.01e+03    -  2.00e-01 1.15e-01h  1
iter    objective    inf_pr   inf_du lg(mu)  ||d||  lg(rg) alpha_du alpha_pr  ls
 100 -5.8476851e+00 9.90e-01 4.08e+03  -6.0 1.17e+03    -  3.06e-01 1.21e-01h  1
 101 -5.8511135e+00 2.55e+00 9.71e+03  -6.0 9.76e+02    -  5.48e-01 2.33e-01h  1
 102 -5.8599604e+00 1.01e+01 1.54e+04  -6.0 2.18e+03    -  4.09e-02 3.64e-01h  1
 103 -5.8704772e+00 9.80e+00 5.89e+04  -6.0 1.11e+03    -  6.42e-02 5.05e-01h  1
 104 -5.8731427e+00 8.81e+00 4.37e+04  -6.0 9.22e+02    -  4.92e-01 1.20e-01h  1
 105 -5.8925014e+00 2.71e+01 3.48e+04  -6.0 1.41e+03    -  6.03e-01 8.01e-01h  1
 106r-5.8925014e+00 2.71e+01 1.00e+03   1.3 0.00e+00  -8.3 0.00e+00 4.70e-07R  3
 107r-5.9081341e+00 2.71e+01 1.00e+03   1.3 1.03e+05    -  2.56e-07 1.13e-07f  1
 108 -5.9071889e+00 2.52e+01 6.61e+04  -6.0 2.10e+01    -  1.08e-06 7.10e-02h  1
 109 -5.9061428e+00 2.31e+01 6.05e+04  -6.0 1.53e+01    -  1.17e-01 8.38e-02h  1
iter    objective    inf_pr   inf_du lg(mu)  ||d||  lg(rg) alpha_du alpha_pr  ls
 110 -5.9002466e+00 1.12e+01 2.94e+04  -6.0 1.41e+01    -  3.07e-01 5.14e-01h  1
 111 -5.8977618e+00 6.41e+00 1.68e+04  -6.0 7.14e+00    -  8.26e-01 4.30e-01h  1
 112 -5.8967922e+00 4.47e+00 1.17e+04  -6.0 4.56e+00    -  3.33e-01 3.03e-01h  1
 113 -5.8945270e+00 1.13e-03 1.05e+02  -6.0 3.23e+00    -  9.12e-01 1.00e+00h  1
 114 -5.8952149e+00 1.98e-03 1.05e+01  -6.0 8.33e+00    -  9.41e-01 1.00e+00h  1
 115 -5.9014482e+00 6.98e-01 1.93e+00  -6.0 1.26e+02    -  9.19e-01 8.03e-01h  1
 116 -5.9086926e+00 5.21e-01 7.19e+00  -6.0 2.45e+02    -  5.87e-01 4.07e-01h  1
 117 -5.9169191e+00 8.18e+00 2.62e+02  -6.0 4.03e+03  -8.8 1.48e-02 1.77e-01h  1
 118 -5.9177392e+00 8.14e+00 2.40e+02  -6.0 2.32e+03    -  3.08e-02 6.09e-03h  1
 119 -5.9434408e+00 8.52e+00 1.81e+02  -6.0 1.54e+03    -  7.24e-02 2.45e-01h  1
iter    objective    inf_pr   inf_du lg(mu)  ||d||  lg(rg) alpha_du alpha_pr  ls
 120r-5.9434408e+00 8.52e+00 9.99e+02   0.7 0.00e+00    -  0.00e+00 4.49e-07R  3
 121r-5.9580191e+00 8.52e+00 9.99e+02   0.7 2.05e+04    -  2.56e-08 4.83e-07f  1
 122 -6.0282453e+00 8.46e+00 3.50e+02  -6.0 4.44e+04    -  7.81e-04 3.87e-02h  1
 123 -6.0374561e+00 8.24e+00 3.78e+02  -6.0 1.19e+03  -6.5 9.69e-05 2.56e-02h  1
 124 -6.0582622e+00 7.83e+00 3.54e+02  -6.0 1.65e+03  -7.0 2.05e-02 5.11e-02h  1
 125 -6.0845197e+00 7.84e+00 3.36e+02  -6.0 1.33e+04    -  3.42e-02 5.73e-02h  1
 126 -6.0873190e+00 7.62e+00 3.24e+02  -6.0 7.81e+03    -  6.06e-02 3.39e-02h  1
 127 -6.0904096e+00 7.23e+00 3.04e+02  -6.0 6.12e+03    -  2.63e-01 5.69e-02h  1
 128 -6.0916760e+00 5.36e+00 2.66e+02  -6.0 4.48e+03    -  2.11e-01 3.67e-01h  1
 129 -6.0690792e+00 2.65e+00 1.18e+02  -6.0 5.02e+02    -  7.79e-01 5.08e-01h  1
iter    objective    inf_pr   inf_du lg(mu)  ||d||  lg(rg) alpha_du alpha_pr  ls
 130 -6.0594819e+00 1.68e+00 7.44e+01  -6.0 4.36e+01  -7.5 2.65e-01 3.67e-01h  1
 131 -6.0578277e+00 1.57e+00 4.55e+02  -6.0 5.64e+02  -8.0 8.36e-04 7.21e-02h  1
 132 -6.0575684e+00 1.54e+00 4.47e+02  -6.0 1.54e+03  -8.5 2.53e-01 1.82e-02h  3
 133 -6.0574380e+00 1.53e+00 4.43e+02  -6.0 4.10e+03    -  9.08e-02 9.78e-03h  6
 134 -6.0573613e+00 1.52e+00 4.40e+02  -6.0 4.66e+03    -  1.69e-01 5.90e-03h  7
 135 -6.0573016e+00 1.51e+00 4.38e+02  -6.0 5.90e+03    -  1.63e-01 4.78e-03h  7
 136 -6.0572536e+00 1.51e+00 4.36e+02  -6.0 7.07e+03    -  1.42e-01 4.03e-03h  7
 137 -6.0572316e+00 1.50e+00 4.35e+02  -6.0 7.56e+03    -  1.96e-01 1.89e-03h  8
 138 -6.0572328e+00 1.50e+00 5.91e+02  -6.0 3.56e+02  -6.2 1.08e-01 2.88e-05h  1
 139 -6.0569692e+00 1.47e+00 6.56e+02  -6.0 2.64e+03    -  2.27e-01 1.88e-02h  6
iter    objective    inf_pr   inf_du lg(mu)  ||d||  lg(rg) alpha_du alpha_pr  ls
 140 -6.0566979e+00 1.45e+00 7.07e+02  -6.0 2.70e+03    -  1.72e-01 1.96e-02h  6
 141 -6.0564560e+00 1.42e+00 6.96e+02  -6.0 3.14e+03    -  2.10e-02 1.78e-02h  6
 142 -6.0564416e+00 1.42e+00 8.09e+02  -6.0 2.51e+01  -6.7 4.49e-01 1.20e-03h  1
 143 -6.0564180e+00 1.41e+00 8.53e+02  -6.0 4.99e+03    -  2.34e-01 2.50e-03h  5
 144 -6.0558965e+00 1.36e+00 8.74e+02  -6.0 2.20e+03    -  1.98e-01 3.76e-02h  5
 145 -6.0556632e+00 1.34e+00 1.04e+03  -6.0 2.37e+03    -  4.36e-01 1.75e-02h  6
 146 -6.0395861e+00 4.01e-01 2.65e+03  -6.0 4.86e+01  -7.2 7.12e-02 7.03e-01h  1
 147 -6.0405205e+00 5.82e-01 2.12e+03  -6.0 7.48e+02  -7.7 1.39e-04 1.43e-01h  1
 148 -6.0409108e+00 3.59e+00 1.42e+03  -6.0 1.24e+03    -  1.93e-01 4.02e-01H  1
 149 -6.0408306e+00 3.38e+00 1.17e+03  -6.0 8.57e+02    -  2.97e-01 5.84e-02h  3
iter    objective    inf_pr   inf_du lg(mu)  ||d||  lg(rg) alpha_du alpha_pr  ls
 150 -6.0408268e+00 3.36e+00 7.57e+02  -6.0 9.98e+02    -  9.61e-01 4.23e-03h  8
 151 -6.0408249e+00 3.36e+00 7.45e+02  -6.0 6.07e+02    -  1.05e-01 1.36e-03h 10
 152 -6.0408245e+00 3.36e+00 6.50e+02  -6.0 6.19e+02    -  1.00e+00 3.47e-04h 12
 153 -6.0408242e+00 3.36e+00 6.47e+02  -6.0 6.20e+02    -  1.05e-01 2.10e-04h 13
 154 -6.0408241e+00 3.36e+00 6.26e+02  -6.0 6.28e+02    -  1.00e+00 1.06e-04h 14
 155 -6.0404990e+00 2.55e+00 4.76e+02  -6.0 6.21e+02    -  1.05e-01 2.40e-01h  3
 156 -6.0404897e+00 2.47e+00 4.60e+02  -6.0 1.00e+03    -  1.00e+00 3.08e-02h  4
 157 -6.0402703e+00 1.83e+00 3.10e+02  -6.0 5.17e+02    -  2.84e-01 3.24e-01h  1
 158 -6.0398300e+00 1.35e+00 6.54e+01  -6.0 5.54e+02    -  1.00e+00 1.00e+00H  1
 159 -6.0411147e+00 6.51e+01 3.92e+01  -6.0 2.17e+03    -  2.55e-01 8.10e-01h  1
iter    objective    inf_pr   inf_du lg(mu)  ||d||  lg(rg) alpha_du alpha_pr  ls
 160 -6.0409398e+00 6.25e+01 3.41e+03  -6.0 4.48e+03    -  7.60e-02 6.81e-02h  3
 161 -6.0413436e+00 6.48e+01 7.76e+03  -6.0 6.01e+03    -  1.46e-01 1.20e-01h  1
 162 -6.0413417e+00 5.59e+01 2.58e+05  -6.0 4.20e+02    -  2.70e-02 1.39e-01h  1
 163 -6.0419281e+00 3.88e+01 1.57e+05  -6.0 1.35e+03    -  2.08e-01 3.92e-01h  1
 164 -6.0417629e+00 1.30e+01 7.15e+04  -6.0 1.17e+04    -  5.31e-01 5.44e-01H  1
 165 -6.0421443e+00 2.20e+02 2.86e+04  -6.0 5.77e+03    -  1.02e-01 5.98e-01h  1
 166 -6.0418564e+00 2.13e+02 3.17e+04  -6.0 1.02e+04    -  4.58e-03 4.59e-02h  2
 167 -6.0437357e+00 9.41e+01 1.20e+04  -6.0 9.62e+01  -8.1 1.21e-01 5.59e-01h  1
 168 -6.0437086e+00 9.39e+01 1.20e+04  -6.0 2.33e+04    -  9.03e-03 7.28e-03h  4
 169 -6.0434751e+00 6.90e+01 8.75e+03  -6.0 6.28e+02    -  7.54e-01 2.68e-01h  1
iter    objective    inf_pr   inf_du lg(mu)  ||d||  lg(rg) alpha_du alpha_pr  ls
 170 -6.0418260e+00 1.76e+00 1.24e+02  -6.0 4.08e+02    -  6.60e-01 1.00e+00h  1
 171 -6.0418077e+00 3.18e-01 4.02e+00  -6.0 4.40e+02    -  9.27e-01 1.00e+00H  1
 172 -6.0418058e+00 8.82e-03 6.90e-03  -6.0 2.43e+01    -  1.00e+00 1.00e+00h  1
 173 -6.0418053e+00 5.02e-04 9.05e-05  -6.0 5.72e+00    -  1.00e+00 1.00e+00h  1
 174 -6.0418053e+00 1.72e-06 3.19e-07  -6.0 3.35e-01    -  1.00e+00 1.00e+00h  1
 175 -6.0419080e+00 2.70e+00 1.39e+01  -7.5 5.95e+02    -  6.57e-01 7.05e-01h  1
 176 -6.0419113e+00 8.30e-01 1.48e+01  -7.5 1.84e+02    -  1.00e+00 8.33e-01h  1
 177 -6.0419080e+00 1.62e-02 2.45e-02  -7.5 3.12e+01    -  1.00e+00 1.00e+00h  1
 178 -6.0419079e+00 2.84e-06 1.11e-06  -7.5 4.40e-01    -  1.00e+00 1.00e+00h  1
 179 -6.0419079e+00 2.95e-10 1.59e-11  -7.5 4.71e-05    -  1.00e+00 1.00e+00h  1
iter    objective    inf_pr   inf_du lg(mu)  ||d||  lg(rg) alpha_du alpha_pr  ls
 180 -6.0419094e+00 4.03e-03 9.22e-01  -9.0 1.93e+01    -  9.26e-01 8.26e-01h  1
 181 -6.0419097e+00 1.81e-04 1.42e-01  -9.0 3.38e+00    -  9.69e-01 1.00e+00h  1
 182 -6.0419097e+00 2.94e-10 4.72e-09  -9.0 3.23e-03    -  1.00e+00 1.00e+00h  1

Number of Iterations....: 182

                                   (scaled)                 (unscaled)
Objective...............:  -4.7202419748238666e+00   -6.0419097277745495e+00
Dual infeasibility......:   4.7159951753815259e-09    6.0364738244883536e-09
Constraint violation....:   2.9370361275416618e-10    2.9370361275416618e-10
Complementarity.........:   1.4155291018262918e-09    1.8118772503376536e-09
Overall NLP error.......:   4.7159951753815259e-09    6.0364738244883536e-09


Number of objective function evaluations             = 437
Number of objective gradient evaluations             = 183
Number of equality constraint evaluations            = 437
Number of inequality constraint evaluations          = 437
Number of equality constraint Jacobian evaluations   = 187
Number of inequality constraint Jacobian evaluations = 187
Number of Lagrangian Hessian evaluations             = 182
Total CPU secs in IPOPT (w/o function evaluations)   =    422.348
Total CPU secs in NLP function evaluations           =      8.818

EXIT: Optimal Solution Found.
